00:00.0 clingo version 5.5.1
00:00.0 Reading from ...ols/../encodings/CTW_nat_optimal_V2.lp ...
29:59.956 UNKNOWN
30:00.96 
30:00.111 TIME LIMIT   : 1
30:00.112 Models       : 0+
30:00.112 Calls        : 1
30:00.112 Time         : 1800.092s (Solving: 0.00s 1st Model: 0.00s Unsat: 0.00s)
30:00.113 CPU Time     : 115.127s
